GLPSOL--GLPK LP/MIP Solver 5.0
Parameter(s) specified in the command line:
 --cpxlp --first new_inputs_trans/order/dag39_down_left_input.lp -o solver_outputs_tr/dag39_down_left_input.lp
Reading problem data from 'new_inputs_trans/order/dag39_down_left_input.lp'...
new_inputs_trans/order/dag39_down_left_input.lp:16726: warning: lower bound of variable 'm_47_47' redefined
new_inputs_trans/order/dag39_down_left_input.lp:16726: warning: upper bound of variable 'm_47_47' redefined
15852 rows, 6106 columns, 45920 non-zeros
6106 integer variables, 5239 of which are binary
22776 lines were read
GLPK Integer Optimizer 5.0
15852 rows, 6106 columns, 45920 non-zeros
6106 integer variables, 5239 of which are binary
Preprocessing...
734 hidden packing inequaliti(es) were detected
480 hidden covering inequaliti(es) were detected
1724 constraint coefficient(s) were reduced
9976 rows, 3734 columns, 27820 non-zeros
3734 integer variables, 3679 of which are binary
Scaling...
 A: min|aij| =  1.000e+00  max|aij| =  2.621e+05  ratio =  2.621e+05
GM: min|aij| =  3.668e-01  max|aij| =  2.726e+00  ratio =  7.433e+00
EQ: min|aij| =  1.361e-01  max|aij| =  1.000e+00  ratio =  7.348e+00
2N: min|aij| =  1.250e-01  max|aij| =  1.750e+00  ratio =  1.400e+01
Constructing initial basis...
Size of triangular part is 9114
Solving LP relaxation...
GLPK Simplex Optimizer 5.0
9976 rows, 3734 columns, 27820 non-zeros
      0: obj =   6.553600000e+05 inf =   1.129e+03 (646)
Perturbing LP to avoid stalling [199]...
   3810: obj =   9.910654218e+05 inf =   2.887e-07 (0) 33
Removing LP perturbation [4250]...
*  4250: obj =   9.175040000e+05 inf =   1.047e-12 (0) 4
OPTIMAL LP SOLUTION FOUND
Integer optimization begins...
Long-step dual simplex will be used
+  4250: mip =     not found yet >=              -inf        (1; 0)
+ 12975: mip =     not found yet >=   9.175040000e+05        (13; 1)
# 22651: obj =   1.359104808e+06 inf =   0.000e+00 (1935) 277 66%
# 27737: obj =   1.359970848e+06 inf =   2.842e-14 (387) 80 88%
+ 27737: mip =     not found yet >=   9.175040000e+05        (13; 2)
+ 36541: mip =     not found yet >=   9.175040000e+05        (13; 3)
+ 43576: mip =     not found yet >=   9.175040000e+05        (16; 8)
+ 50157: mip =     not found yet >=   9.175040000e+05        (16; 9)
+ 58992: mip =     not found yet >=   9.175040000e+05        (51; 12)
+ 65947: mip =     not found yet >=   9.175040000e+05        (70; 15)
Time used: 60.0 secs.  Memory used: 14.0 Mb.
+ 73460: mip =     not found yet >=   9.175040000e+05        (112; 20)
+ 80329: mip =     not found yet >=   9.175040000e+05        (122; 24)
+ 87801: mip =     not found yet >=   9.175040000e+05        (145; 33)
+102840: mip =     not found yet >=   9.175040000e+05        (181; 38)
#115902: obj =   9.429274483e+05 inf =   0.000e+00 (179) 110 84%
#116034: obj =   9.429274483e+05 inf =   0.000e+00 (0) 1 100%
+116034: mip =     not found yet >=   9.175040000e+05        (189; 39)
+122840: mip =     not found yet >=   9.175040000e+05        (200; 42)
#140270: obj =   9.449851632e+05 inf =   0.000e+00 (2161) 134 78%
#144058: obj =   9.469749430e+05 inf =   6.417e-14 (0) 35 89%
+144058: mip =     not found yet >=   9.175040000e+05        (230; 46)
Time used: 120.0 secs.  Memory used: 16.5 Mb.
+150956: mip =     not found yet >=   9.175040000e+05        (246; 48)
Warning: basis matrix is ill-conditioned (cond = 5.54e+12)
#166456: obj =   9.904961898e+05 inf =   0.000e+00 (1642) 107 79%
#167608: obj =   9.905178236e+05 inf =   0.000e+00 (0) 10 99%
+167608: mip =     not found yet >=   9.175040000e+05        (257; 52)
+179568: mip =     not found yet >=   9.175040000e+05        (265; 55)
+190115: mip =     not found yet >=   9.175040000e+05        (270; 55)
+202056: mip =     not found yet >=   9.175040000e+05        (272; 59)
+209651: mip =     not found yet >=   9.175040000e+05        (277; 59)
+216042: mip =     not found yet >=   9.175040000e+05        (291; 60)
Time used: 180.2 secs.  Memory used: 17.3 Mb.
+230410: mip =     not found yet >=   9.175040000e+05        (303; 67)
#243239: obj =   9.958741926e+05 inf =   0.000e+00 (2182) 147 75%
#248894: obj =   9.981388261e+05 inf =   0.000e+00 (933) 54 78%
#254152: obj =   9.991620884e+05 inf =   0.000e+00 (1173) 47 80%
#256226: obj =   1.003035042e+06 inf =   0.000e+00 (0) 20 99%
+256226: mip =     not found yet >=   9.175040000e+05        (313; 68)
+263307: mip =     not found yet >=   9.175040000e+05        (316; 68)
+269434: mip =     not found yet >=   9.175040000e+05        (317; 68)
+277750: mip =     not found yet >=   9.175040000e+05        (322; 68)
Time used: 240.2 secs.  Memory used: 17.9 Mb.
+284549: mip =     not found yet >=   9.175040000e+05        (348; 72)
+291299: mip =     not found yet >=   9.175040000e+05        (363; 77)
+304991: mip =     not found yet >=   9.175040000e+05        (378; 87)
+316850: mip =     not found yet >=   9.175040000e+05        (392; 96)
+326974: mip =     not found yet >=   9.175040000e+05        (398; 96)
+333613: mip =     not found yet >=   9.175040000e+05        (435; 97)
+341017: mip =     not found yet >=   9.175040000e+05        (438; 97)
Warning: basis matrix is ill-conditioned (cond = 4.77e+12)
Warning: basis matrix is ill-conditioned (cond = 4.77e+12)
Warning: basis matrix is ill-conditioned (cond = 4.77e+12)
Warning: basis matrix is ill-conditioned (cond = 4.79e+12)
+345431: mip =     not found yet >=   9.175040000e+05        (442; 98)
#358103: obj =   9.977759946e+05 inf =   0.000e+00 (659) 118 74%
#359938: obj =   9.994802189e+05 inf =   2.842e-14 (0) 17 99%
+359938: mip =     not found yet >=   9.175040000e+05        (460; 101)
Time used: 306.6 secs.  Memory used: 19.1 Mb.
+366968: mip =     not found yet >=   9.175040000e+05        (462; 113)
+377496: mip =     not found yet >=   9.175040000e+05        (473; 123)
+384187: mip =     not found yet >=   9.175040000e+05        (491; 129)
#400214: obj =   1.103399384e+06 inf =   0.000e+00 (84) 94 77%
#400250: obj =   1.103399385e+06 inf =   0.000e+00 (0) 1 100%
+400250: mip =     not found yet >=   9.175040000e+05        (506; 139)
+408816: mip =     not found yet >=   9.175040000e+05        (515; 141)
+415585: mip =     not found yet >=   9.175040000e+05        (526; 150)
#426638: obj =   9.199116885e+05 inf =   0.000e+00 (1302) 141 71%
#429676: obj =   9.205366805e+05 inf =   0.000e+00 (0) 29 99%
+429676: mip =     not found yet >=   9.175040000e+05        (543; 151)
Time used: 367.3 secs.  Memory used: 20.1 Mb.
Warning: basis matrix is ill-conditioned (cond = 1.77e+13)
+442026: mip =     not found yet >=   9.175040000e+05        (552; 154)
+448748: mip =     not found yet >=   9.175040000e+05        (557; 154)
+461945: mip =     not found yet >=   9.175040000e+05        (562; 161)
+474921: mip =     not found yet >=   9.175040000e+05        (587; 164)
+486116: mip =     not found yet >=   9.175040000e+05        (634; 165)
Warning: basis matrix is ill-conditioned (cond = 4.79e+12)
+495103: mip =     not found yet >=   9.175040000e+05        (651; 168)
Time used: 427.4 secs.  Memory used: 21.5 Mb.
+506810: mip =     not found yet >=   9.175040000e+05        (674; 170)
+514935: mip =     not found yet >=   9.175040000e+05        (685; 171)
+524349: mip =     not found yet >=   9.175040000e+05        (712; 182)
+535342: mip =     not found yet >=   9.175040000e+05        (744; 185)
+543803: mip =     not found yet >=   9.175040000e+05        (767; 192)
+552471: mip =     not found yet >=   9.175040000e+05        (808; 197)
+561230: mip =     not found yet >=   9.175040000e+05        (842; 207)
+568895: mip =     not found yet >=   9.175040000e+05        (900; 215)
+576408: mip =     not found yet >=   9.175040000e+05        (941; 224)
+584626: mip =     not found yet >=   9.175040000e+05        (971; 233)
+596358: mip =     not found yet >=   9.175040000e+05        (998; 242)
Time used: 490.5 secs.  Memory used: 25.0 Mb.
Warning: basis matrix is ill-conditioned (cond = 4.87e+12)
+605398: mip =     not found yet >=   9.175040000e+05        (1015; 244)
+612952: mip =     not found yet >=   9.175040000e+05        (1039; 255)
+620158: mip =     not found yet >=   9.175040000e+05        (1060; 260)
+628993: mip =     not found yet >=   9.175040000e+05        (1081; 263)
+637105: mip =     not found yet >=   9.175040000e+05        (1096; 272)
+644386: mip =     not found yet >=   9.175040000e+05        (1103; 274)
+653755: mip =     not found yet >=   9.175040000e+05        (1139; 280)
+663169: mip =     not found yet >=   9.175040000e+05        (1152; 282)
+670956: mip =     not found yet >=   9.175040000e+05        (1172; 291)
+679687: mip =     not found yet >=   9.175040000e+05        (1220; 303)
Time used: 550.7 secs.  Memory used: 28.2 Mb.
+693947: mip =     not found yet >=   9.175040000e+05        (1247; 308)
+702050: mip =     not found yet >=   9.175040000e+05        (1269; 319)
+712909: mip =     not found yet >=   9.175040000e+05        (1287; 323)
+722721: mip =     not found yet >=   9.175040000e+05        (1299; 331)
#741107: obj =   9.979786233e+05 inf =   0.000e+00 (895) 108 79%
#743542: obj =   9.982876300e+05 inf =   1.930e-18 (0) 23 86%
+743542: mip =     not found yet >=   9.175040000e+05        (1317; 336)
+750882: mip =     not found yet >=   9.175040000e+05        (1336; 341)
+758633: mip =     not found yet >=   9.175040000e+05        (1391; 349)
Time used: 610.9 secs.  Memory used: 30.5 Mb.
+766333: mip =     not found yet >=   9.175040000e+05        (1404; 353)
+780839: mip =     not found yet >=   9.175040000e+05        (1421; 355)
+790839: mip =     not found yet >=   9.175040000e+05        (1440; 359)
+801729: mip =     not found yet >=   9.175040000e+05        (1481; 364)
+813976: mip =     not found yet >=   9.175040000e+05        (1499; 370)
+822868: mip =     not found yet >=   9.175040000e+05        (1533; 377)
+831925: mip =     not found yet >=   9.175040000e+05        (1562; 387)
+841779: mip =     not found yet >=   9.175040000e+05        (1564; 388)
+852448: mip =     not found yet >=   9.175040000e+05        (1591; 393)
Time used: 671.4 secs.  Memory used: 32.8 Mb.
+861139: mip =     not found yet >=   9.175040000e+05        (1602; 395)
+866985: mip =     not found yet >=   9.175040000e+05        (1601; 397)
+882934: mip =     not found yet >=   9.175040000e+05        (1633; 408)
+890057: mip =     not found yet >=   9.175040000e+05        (1646; 411)
+897630: mip =     not found yet >=   9.175040000e+05        (1658; 411)
+906126: mip =     not found yet >=   9.175040000e+05        (1678; 416)
+916369: mip =     not found yet >=   9.175040000e+05        (1701; 421)
+924097: mip =     not found yet >=   9.175040000e+05        (1714; 429)
+930879: mip =     not found yet >=   9.175040000e+05        (1721; 430)
Time used: 731.7 secs.  Memory used: 34.7 Mb.
+938566: mip =     not found yet >=   9.175040000e+05        (1737; 435)
+946871: mip =     not found yet >=   9.175040000e+05        (1780; 442)
+954016: mip =     not found yet >=   9.175040000e+05        (1788; 447)
+964643: mip =     not found yet >=   9.175040000e+05        (1793; 451)
+971952: mip =     not found yet >=   9.175040000e+05        (1831; 454)
+973098: >>>>>   1.507328000e+06 >=   9.175040000e+05  39.1% (1849; 454)
+983750: mip =   1.507328000e+06 >=   9.175040000e+05  39.1% (1884; 468)
+997833: mip =   1.507328000e+06 >=   9.175040000e+05  39.1% (1902; 472)
+1005919: mip =   1.507328000e+06 >=   9.175040000e+05  39.1% (1944; 491)
+1013532: mip =   1.507328000e+06 >=   9.175040000e+05  39.1% (1958; 494)
Time used: 791.9 secs.  Memory used: 38.0 Mb.
+1023597: mip =   1.507328000e+06 >=   9.175040000e+05  39.1% (1994; 511)
+1033239: mip =   1.507328000e+06 >=   9.175040000e+05  39.1% (2010; 520)
+1042837: mip =   1.507328000e+06 >=   9.175040000e+05  39.1% (2025; 531)
+1050159: mip =   1.507328000e+06 >=   9.175040000e+05  39.1% (2046; 535)
#1062047: obj =   9.500201598e+05 inf =   0.000e+00 (725) 97 81%
#1065970: obj =   9.597385407e+05 inf =   1.139e-12 (0) 36 86%
+1065970: mip =   1.507328000e+06 >=   9.175040000e+05  39.1% (2052; 537)
+1072292: mip =   1.507328000e+06 >=   9.175040000e+05  39.1% (2053; 538)
+1078937: mip =   1.507328000e+06 >=   9.175040000e+05  39.1% (2081; 539)
+1085144: mip =   1.507328000e+06 >=   9.175040000e+05  39.1% (2086; 541)
+1099286: mip =   1.507328000e+06 >=   9.175040000e+05  39.1% (2089; 543)
Time used: 857.0 secs.  Memory used: 39.2 Mb.
+1106765: mip =   1.507328000e+06 >=   9.175040000e+05  39.1% (2104; 546)
+1112619: mip =   1.507328000e+06 >=   9.175040000e+05  39.1% (2115; 546)
+1119581: mip =   1.507328000e+06 >=   9.175040000e+05  39.1% (2116; 546)
+1131911: mip =   1.507328000e+06 >=   9.175040000e+05  39.1% (2126; 549)
+1144972: mip =   1.507328000e+06 >=   9.175040000e+05  39.1% (2141; 550)
+1152637: mip =   1.507328000e+06 >=   9.175040000e+05  39.1% (2176; 556)
+1160604: mip =   1.507328000e+06 >=   9.175040000e+05  39.1% (2215; 568)
+1168448: mip =   1.507328000e+06 >=   9.175040000e+05  39.1% (2232; 573)
Time used: 917.1 secs.  Memory used: 40.8 Mb.
+1177799: mip =   1.507328000e+06 >=   9.175040000e+05  39.1% (2236; 578)
+1184981: mip =   1.507328000e+06 >=   9.175040000e+05  39.1% (2248; 582)
+1192792: mip =   1.507328000e+06 >=   9.175040000e+05  39.1% (2263; 591)
+1201727: mip =   1.507328000e+06 >=   9.175040000e+05  39.1% (2282; 606)
+1210007: mip =   1.507328000e+06 >=   9.175040000e+05  39.1% (2287; 609)
+1218603: mip =   1.507328000e+06 >=   9.175040000e+05  39.1% (2326; 621)
+1227111: mip =   1.507328000e+06 >=   9.175040000e+05  39.1% (2387; 632)
+1234557: mip =   1.507328000e+06 >=   9.175040000e+05  39.1% (2388; 636)
+1240732: mip =   1.507328000e+06 >=   9.175040000e+05  39.1% (2391; 636)
+1249585: mip =   1.507328000e+06 >=   9.175040000e+05  39.1% (2409; 641)
Time used: 977.4 secs.  Memory used: 43.3 Mb.
+1257141: mip =   1.507328000e+06 >=   9.175040000e+05  39.1% (2433; 651)
+1266019: mip =   1.507328000e+06 >=   9.175040000e+05  39.1% (2468; 659)
+1272384: mip =   1.507328000e+06 >=   9.175040000e+05  39.1% (2472; 660)
+1280817: mip =   1.507328000e+06 >=   9.175040000e+05  39.1% (2506; 670)
+1288803: mip =   1.507328000e+06 >=   9.175040000e+05  39.1% (2572; 683)
+1300166: mip =   1.507328000e+06 >=   9.175040000e+05  39.1% (2580; 686)
+1313548: mip =   1.507328000e+06 >=   9.175040000e+05  39.1% (2608; 696)
+1320976: mip =   1.507328000e+06 >=   9.175040000e+05  39.1% (2629; 697)
+1329276: mip =   1.507328000e+06 >=   9.175040000e+05  39.1% (2654; 702)
+1337536: mip =   1.507328000e+06 >=   9.175040000e+05  39.1% (2672; 715)
Time used: 1038.5 secs.  Memory used: 46.0 Mb.
+1345332: mip =   1.507328000e+06 >=   9.175040000e+05  39.1% (2686; 721)
+1353815: mip =   1.507328000e+06 >=   9.175040000e+05  39.1% (2723; 732)
+1361707: mip =   1.507328000e+06 >=   9.175040000e+05  39.1% (2737; 736)
+1371034: mip =   1.507328000e+06 >=   9.175040000e+05  39.1% (2780; 746)
+1378392: mip =   1.507328000e+06 >=   9.175040000e+05  39.1% (2787; 752)
+1385931: mip =   1.507328000e+06 >=   9.175040000e+05  39.1% (2818; 756)
+1393947: mip =   1.507328000e+06 >=   9.175040000e+05  39.1% (2825; 760)
+1397440: >>>>>   9.994240000e+05 >=   9.175040000e+05   8.2% (2863; 764)
+1410486: mip =   9.994240000e+05 >=   9.175040000e+05   8.2% (1624; 3328)
+1414216: >>>>>   9.830400000e+05 >=   9.175040000e+05   6.7% (1637; 3331)
+1423428: mip =   9.830400000e+05 >=   9.175040000e+05   6.7% (1412; 3829)
+1431682: mip =   9.830400000e+05 >=   9.175040000e+05   6.7% (1421; 3843)
Time used: 1100.1 secs.  Memory used: 47.9 Mb.
+1439398: mip =   9.830400000e+05 >=   9.175040000e+05   6.7% (1417; 3860)
+1450063: mip =   9.830400000e+05 >=   9.175040000e+05   6.7% (1422; 3877)
+1457881: mip =   9.830400000e+05 >=   9.175040000e+05   6.7% (1424; 3914)
+1466326: mip =   9.830400000e+05 >=   9.175040000e+05   6.7% (1419; 3940)
#1479103: obj =   9.537900155e+05 inf =   0.000e+00 (1329) 125 76%
#1481755: obj =   9.576818110e+05 inf =   3.215e-13 (0) 23 88%
+1481755: mip =   9.830400000e+05 >=   9.175040000e+05   6.7% (1416; 3951)
Warning: basis matrix is ill-conditioned (cond = 5.6e+12)
Warning: basis matrix is ill-conditioned (cond = 5.64e+12)
Warning: basis matrix is ill-conditioned (cond = 8e+12)
Warning: basis matrix is ill-conditioned (cond = 4.68e+12)
Warning: basis matrix is ill-conditioned (cond = 4.68e+12)
Warning: basis matrix is ill-conditioned (cond = 4.68e+12)
Warning: basis matrix is ill-conditioned (cond = 4.68e+12)
Warning: basis matrix is ill-conditioned (cond = 4.69e+12)
Warning: basis matrix is ill-conditioned (cond = 4.68e+12)
Warning: basis matrix is ill-conditioned (cond = 4.68e+12)
Warning: basis matrix is ill-conditioned (cond = 4.68e+12)
Warning: basis matrix is ill-conditioned (cond = 1.69e+13)
Warning: basis matrix is ill-conditioned (cond = 4.64e+13)
Warning: basis matrix is ill-conditioned (cond = 4.66e+13)
Warning: basis matrix is ill-conditioned (cond = 4.66e+13)
Warning: basis matrix is ill-conditioned (cond = 4.65e+13)
Warning: basis matrix is ill-conditioned (cond = 4.65e+13)
Warning: basis matrix is ill-conditioned (cond = 4.67e+13)
Warning: basis matrix is ill-conditioned (cond = 4.68e+13)
Warning: basis matrix is ill-conditioned (cond = 4.69e+13)
+1494827: mip =   9.830400000e+05 >=   9.175040000e+05   6.7% (1427; 3969)
+1509284: mip =   9.830400000e+05 >=   9.175040000e+05   6.7% (1429; 4021)
+1522419: mip =   9.830400000e+05 >=   9.175040000e+05   6.7% (1432; 4062)
Time used: 1160.3 secs.  Memory used: 47.9 Mb.
+1530348: mip =   9.830400000e+05 >=   9.175040000e+05   6.7% (1429; 4075)
Warning: basis matrix is ill-conditioned (cond = 6.94e+12)
Warning: basis matrix is ill-conditioned (cond = 6.97e+12)
+1537634: mip =   9.830400000e+05 >=   9.175040000e+05   6.7% (1433; 4090)
+1549470: mip =   9.830400000e+05 >=   9.175040000e+05   6.7% (1421; 4162)
+1558999: mip =   9.830400000e+05 >=   9.175040000e+05   6.7% (1433; 4170)
+1575363: mip =   9.830400000e+05 >=   9.175040000e+05   6.7% (1434; 4176)
+1582543: mip =   9.830400000e+05 >=   9.175040000e+05   6.7% (1435; 4179)
+1589939: mip =   9.830400000e+05 >=   9.175040000e+05   6.7% (1438; 4180)
+1600986: mip =   9.830400000e+05 >=   9.175040000e+05   6.7% (1444; 4185)
Time used: 1220.5 secs.  Memory used: 47.9 Mb.
+1607518: mip =   9.830400000e+05 >=   9.175040000e+05   6.7% (1447; 4186)
+1615858: mip =   9.830400000e+05 >=   9.175040000e+05   6.7% (1451; 4192)
+1624619: mip =   9.830400000e+05 >=   9.175040000e+05   6.7% (1463; 4213)
+1640621: mip =   9.830400000e+05 >=   9.175040000e+05   6.7% (1458; 4222)
+1648247: mip =   9.830400000e+05 >=   9.175040000e+05   6.7% (1464; 4226)
+1659369: mip =   9.830400000e+05 >=   9.175040000e+05   6.7% (1474; 4242)
+1667828: mip =   9.830400000e+05 >=   9.175040000e+05   6.7% (1475; 4287)
+1676817: mip =   9.830400000e+05 >=   9.175040000e+05   6.7% (1514; 4306)
+1684824: mip =   9.830400000e+05 >=   9.175040000e+05   6.7% (1527; 4319)
+1695909: mip =   9.830400000e+05 >=   9.175040000e+05   6.7% (1529; 4326)
Time used: 1280.6 secs.  Memory used: 47.9 Mb.
+1705873: mip =   9.830400000e+05 >=   9.175040000e+05   6.7% (1528; 4342)
+1719475: mip =   9.830400000e+05 >=   9.175040000e+05   6.7% (1547; 4360)
+1726995: mip =   9.830400000e+05 >=   9.175040000e+05   6.7% (1554; 4361)
+1735320: mip =   9.830400000e+05 >=   9.175040000e+05   6.7% (1577; 4380)
+1743784: mip =   9.830400000e+05 >=   9.175040000e+05   6.7% (1596; 4404)
+1752863: mip =   9.830400000e+05 >=   9.175040000e+05   6.7% (1586; 4479)
+1761957: mip =   9.830400000e+05 >=   9.175040000e+05   6.7% (1601; 4534)
+1771191: mip =   9.830400000e+05 >=   9.175040000e+05   6.7% (1610; 4566)
+1780055: mip =   9.830400000e+05 >=   9.175040000e+05   6.7% (1605; 4580)
+1788475: mip =   9.830400000e+05 >=   9.175040000e+05   6.7% (1597; 4615)
Time used: 1340.6 secs.  Memory used: 47.9 Mb.
+1797537: mip =   9.830400000e+05 >=   9.175040000e+05   6.7% (1594; 4644)
+1805732: mip =   9.830400000e+05 >=   9.175040000e+05   6.7% (1613; 4655)
+1814929: mip =   9.830400000e+05 >=   9.175040000e+05   6.7% (1615; 4700)
+1824567: mip =   9.830400000e+05 >=   9.175040000e+05   6.7% (1624; 4711)
+1835118: mip =   9.830400000e+05 >=   9.175040000e+05   6.7% (1631; 4728)
+1842489: mip =   9.830400000e+05 >=   9.175040000e+05   6.7% (1640; 4733)
+1851053: mip =   9.830400000e+05 >=   9.175040000e+05   6.7% (1641; 4772)
+1860258: mip =   9.830400000e+05 >=   9.175040000e+05   6.7% (1674; 4792)
+1869047: mip =   9.830400000e+05 >=   9.175040000e+05   6.7% (1684; 4811)
+1878672: mip =   9.830400000e+05 >=   9.175040000e+05   6.7% (1692; 4861)
+1888078: mip =   9.830400000e+05 >=   9.175040000e+05   6.7% (1696; 4889)
Time used: 1401.5 secs.  Memory used: 47.9 Mb.
+1896734: mip =   9.830400000e+05 >=   9.175040000e+05   6.7% (1726; 4915)
+1904956: mip =   9.830400000e+05 >=   9.175040000e+05   6.7% (1738; 4923)
+1916302: mip =   9.830400000e+05 >=   9.175040000e+05   6.7% (1736; 4961)
+1924185: mip =   9.830400000e+05 >=   9.175040000e+05   6.7% (1754; 4965)
+1933381: mip =   9.830400000e+05 >=   9.175040000e+05   6.7% (1776; 5005)
+1941426: mip =   9.830400000e+05 >=   9.175040000e+05   6.7% (1770; 5027)
+1955621: mip =   9.830400000e+05 >=   9.175040000e+05   6.7% (1793; 5050)
+1964994: mip =   9.830400000e+05 >=   9.175040000e+05   6.7% (1805; 5088)
+1974463: mip =   9.830400000e+05 >=   9.175040000e+05   6.7% (1816; 5114)
+1983242: mip =   9.830400000e+05 >=   9.175040000e+05   6.7% (1825; 5123)
+1991456: mip =   9.830400000e+05 >=   9.175040000e+05   6.7% (1839; 5147)
Time used: 1461.7 secs.  Memory used: 48.5 Mb.
+2000362: mip =   9.830400000e+05 >=   9.175040000e+05   6.7% (1842; 5164)
+2011340: mip =   9.830400000e+05 >=   9.175040000e+05   6.7% (1864; 5183)
+2020371: mip =   9.830400000e+05 >=   9.175040000e+05   6.7% (1889; 5229)
+2029099: mip =   9.830400000e+05 >=   9.175040000e+05   6.7% (1889; 5270)
+2037549: mip =   9.830400000e+05 >=   9.175040000e+05   6.7% (1879; 5307)
+2046007: mip =   9.830400000e+05 >=   9.175040000e+05   6.7% (1882; 5375)
+2054914: mip =   9.830400000e+05 >=   9.175040000e+05   6.7% (1896; 5422)
+2062669: mip =   9.830400000e+05 >=   9.175040000e+05   6.7% (1902; 5427)
+2070837: mip =   9.830400000e+05 >=   9.175040000e+05   6.7% (1921; 5436)
+2078580: mip =   9.830400000e+05 >=   9.175040000e+05   6.7% (1929; 5440)
+2088708: mip =   9.830400000e+05 >=   9.175040000e+05   6.7% (1937; 5457)
Time used: 1521.7 secs.  Memory used: 49.7 Mb.
+2097560: mip =   9.830400000e+05 >=   9.175040000e+05   6.7% (1953; 5499)
+2108740: mip =   9.830400000e+05 >=   9.175040000e+05   6.7% (1971; 5526)
+2121521: mip =   9.830400000e+05 >=   9.175040000e+05   6.7% (1975; 5540)
+2129360: mip =   9.830400000e+05 >=   9.175040000e+05   6.7% (1979; 5542)
+2137457: mip =   9.830400000e+05 >=   9.175040000e+05   6.7% (1982; 5552)
+2145925: mip =   9.830400000e+05 >=   9.175040000e+05   6.7% (2035; 5571)
+2154679: mip =   9.830400000e+05 >=   9.175040000e+05   6.7% (2061; 5591)
+2162968: mip =   9.830400000e+05 >=   9.175040000e+05   6.7% (2075; 5596)
+2170842: mip =   9.830400000e+05 >=   9.175040000e+05   6.7% (2097; 5612)
+2179496: mip =   9.830400000e+05 >=   9.175040000e+05   6.7% (2098; 5631)
+2188756: mip =   9.830400000e+05 >=   9.175040000e+05   6.7% (2100; 5665)
Time used: 1582.3 secs.  Memory used: 50.8 Mb.
+2197370: mip =   9.830400000e+05 >=   9.175040000e+05   6.7% (2108; 5687)
+2206517: mip =   9.830400000e+05 >=   9.175040000e+05   6.7% (2109; 5723)
+2214824: mip =   9.830400000e+05 >=   9.175040000e+05   6.7% (2116; 5745)
+2223043: mip =   9.830400000e+05 >=   9.175040000e+05   6.7% (2125; 5760)
+2230426: mip =   9.830400000e+05 >=   9.175040000e+05   6.7% (2132; 5763)
+2238644: mip =   9.830400000e+05 >=   9.175040000e+05   6.7% (2153; 5778)
+2246393: mip =   9.830400000e+05 >=   9.175040000e+05   6.7% (2159; 5797)
+2254887: mip =   9.830400000e+05 >=   9.175040000e+05   6.7% (2161; 5826)
+2263778: mip =   9.830400000e+05 >=   9.175040000e+05   6.7% (2167; 5836)
+2271893: mip =   9.830400000e+05 >=   9.175040000e+05   6.7% (2176; 5852)
+2279898: mip =   9.830400000e+05 >=   9.175040000e+05   6.7% (2189; 5875)
Time used: 1642.3 secs.  Memory used: 51.5 Mb.
+2288031: mip =   9.830400000e+05 >=   9.175040000e+05   6.7% (2207; 5899)
+2295816: mip =   9.830400000e+05 >=   9.175040000e+05   6.7% (2218; 5908)
+2304477: mip =   9.830400000e+05 >=   9.175040000e+05   6.7% (2231; 5917)
+2312107: mip =   9.830400000e+05 >=   9.175040000e+05   6.7% (2226; 5929)
+2321818: mip =   9.830400000e+05 >=   9.175040000e+05   6.7% (2226; 5935)
+2331728: mip =   9.830400000e+05 >=   9.175040000e+05   6.7% (2238; 5958)
+2338808: mip =   9.830400000e+05 >=   9.175040000e+05   6.7% (2237; 5960)
Warning: basis matrix is ill-conditioned (cond = 4.94e+12)
+2348170: mip =   9.830400000e+05 >=   9.175040000e+05   6.7% (2237; 5961)
+2356509: mip =   9.830400000e+05 >=   9.175040000e+05   6.7% (2238; 5994)
+2364699: mip =   9.830400000e+05 >=   9.175040000e+05   6.7% (2248; 6009)
+2373766: mip =   9.830400000e+05 >=   9.175040000e+05   6.7% (2254; 6032)
Time used: 1702.8 secs.  Memory used: 52.5 Mb.
+2383578: mip =   9.830400000e+05 >=   9.175040000e+05   6.7% (2253; 6041)
+2392227: mip =   9.830400000e+05 >=   9.175040000e+05   6.7% (2261; 6059)
+2400252: mip =   9.830400000e+05 >=   9.175040000e+05   6.7% (2271; 6076)
+2408452: mip =   9.830400000e+05 >=   9.175040000e+05   6.7% (2277; 6101)
+2419684: mip =   9.830400000e+05 >=   9.175040000e+05   6.7% (2286; 6153)
+2430439: mip =   9.830400000e+05 >=   9.175040000e+05   6.7% (2294; 6173)
+2438879: mip =   9.830400000e+05 >=   9.175040000e+05   6.7% (2300; 6184)
+2449410: mip =   9.830400000e+05 >=   9.175040000e+05   6.7% (2304; 6191)
+2458279: mip =   9.830400000e+05 >=   9.175040000e+05   6.7% (2299; 6238)
+2466756: mip =   9.830400000e+05 >=   9.175040000e+05   6.7% (2318; 6255)
+2476823: mip =   9.830400000e+05 >=   9.175040000e+05   6.7% (2318; 6267)
Time used: 1763.9 secs.  Memory used: 54.0 Mb.
+2490292: mip =   9.830400000e+05 >=   9.175040000e+05   6.7% (2314; 6283)
+2498474: mip =   9.830400000e+05 >=   9.175040000e+05   6.7% (2328; 6305)
+2509422: mip =   9.830400000e+05 >=   9.175040000e+05   6.7% (2337; 6314)
+2518631: mip =   9.830400000e+05 >=   9.175040000e+05   6.7% (2348; 6350)
